Trabajo Practico/tp_opl/Casos propios/Caso1MasDestinosPorPasadaQueCodigosPostales.dat
/*********************************************
 * OPL 12.9.1.0 Data
 * Author: Franco Daniel Schischlo
 * Creation Date: Aug 29, 2019 at 8:44:07 PM
 *********************************************/

COD_POST = {"A","B"}; 

CAJAS = [10,5]; //Cajas por cod post

DESTINOS_POR_PASADA = 4;

TIEMPO_PROC_CAJA = 1; //Expresado en segundos
